
%    +---------------+
% 10 | | | | | | | | |
% 9  | | | | | | | | |
% 8  | | | | | | | | |
% 7  | | | |1|1| | | |
% 6  | | | |1|1| | | |
% 5  | | | | | | | | |
% 4  | | | | |5|6| | |
% 3  | | | | |4| | | |
% 2  | | | |2| | | | |
% 1  | | | |3| | | | |
%    +---------------+
n=8;
m=10;
h=2;
%maxT=30;
boxNumber=6;
boxSideLen = [2, 1, 1, 1, 1, 1];
boxStartX  = [4, 4, 4, 5, 5, 6];
boxStartY  = [6, 2, 1, 3, 4, 4];
